
(set-logic ALL) 

(declare-datatype MyList ((Nil) (Cons (head Real) (tail MyList)) )) 
(declare-fun l0 () MyList) 
(declare-fun l1 () MyList) 
(declare-fun l2 () MyList) 
(declare-fun l3 () MyList) 
(declare-fun i0 () Real) 
(declare-fun i1 () Real) 
(assert (or (= l3 Nil) (= l3 l0) (= l2 Nil)) )
(assert (or (is-Nil Nil) (= l3 Nil) (is-Cons Nil) (= l2 l0)) )
(assert (not (= l1 l1)) )
(assert (or (is-Nil l3) (= l3 Nil) (= l3 Nil) (= l2 Nil)) )
(assert (is-Cons Nil) )
(assert (= l3 l3) )
(assert (is-Cons Nil) )
(assert (= l0 l1) )
(check-sat)
